

















































































57 8 34 
45 51 
1 27 
13 53 73 
68 52 6 
61 0 
49 39 
28 74 41 
69 18 
64 46 7 
26 48 
38 10 75 
66 67 
65 72 
76 32 
31 43 35 
17 11 20 
30 5 
71 24 
40 44 25 
33 22 
54 50 
9 36 
16 12 56 
37 4 3 
21 62 
55 60 23 
15 63 
47 58 
29 2 
70 
14 19 
59 42 
